200
100
100
100
99
99
99
98
98
98
97
97
97
97
96
96
95
94
94
94
94
94
94
93
93
93
93
93
92
91
90
90
90
90
89
87
86
86
86
85
85
85
85
85
84
83
83
83
82
82
81
81
80
80
78
77
76
76
76
75
75
74
74
74
74
74
73
72
71
71
70
70
70
69
69
68
68
68
67
67
67
67
66
66
65
64
63
63
62
61
61
61
60
60
60
60
60
60
59
59
58
58
58
57
57
56
56
54
54
53
53
50
50
49
49
49
48
48
48
46
46
46
45
44
42
41
40
40
37
37
37
36
36
34
33
32
32
31
30
29
28
28
27
27
27
26
25
25
25
24
24
23
23
23
23
23
23
23
22
22
21
21
20
20
20
19
18
17
16
16
15
15
14
14
14
13
12
12
12
11
10
10
10
10
9
8
8
8
8
7
7
7
7
6
5
5
5
5
4
3
2
1
